203,44 337,47 253,86 354,34 258,74 360,56 540,83 348,01 471,99 402,77 444,72 860,39 499,44 638,14
400,35 226,69 389,09 97,18 157,23 582,14 273,35 470,52 346,81 267,19 678,64 300,46 620,26
190,03 52,70 356,29 497,21 203,44 236,88 169,97 217,31 457,65 1051,06 566,67 328,30
166,67 167,50 307,32 356,29 100,00 246,08 149,07 282,84 861,04 383,70 403,46
333,75 471,40 195,08 194,37 126,93 166,67 417,67 1023,20 529,68 291,55
142,40 519,08 186,34 396,16 260,87 186,34 696,02 250,00 536,71
650,00 301,85 519,08 372,68 166,67 554,03 150,92 643,34
351,58 142,40 291,07 565,93 1192,80 683,33 186,34
217,31 74,54 223,61 841,46 337,47 350,40
150,92 424,92 1054,75 542,63 166,67
274,87 903,85 392,29 275,88 
633,55 117,85 519,08 
516,67 1150,48 
634,21